649,613
705,423
681,196
311,526
439,230
996,177
839,188
789,619
948,542
948,270
611,309
576,261
596,379
621,406
729,371
755,178
685,377
1166,563
607,178
644,169
521,325
469,194
729,371
681,406
1214,490
871,596
536,301
999,724
681,676
